RT is False
Default write of storage_offers_DA.csv just to have a file (but constraint should be inactive)
Reading model...
...model read.
creating competitive generators file...
...competitive generators recorded.
Loading data...
.. day-ahead data with real-time VRE data read.
Compiling instance...
...instance created.
Creating Offer Mitigation (model will solve as dispatch if TRUE)...
NOTE: storage offers will not be mitigated
...storage offer mitigation file created
Converting model to MPEC...
...converted
NOTE: initial MIP solve with only storage competitive to get feasible solution
Solving...

Welcome to IBM(R) ILOG(R) CPLEX(R) Interactive Optimizer 12.9.0.0
  with Simplex, Mixed Integer & Barrier Optimizers
5725-A06 5725-A29 5724-Y48 5724-Y49 5724-Y54 5724-Y55 5655-Y21
Copyright IBM Corp. 1988, 2019.  All Rights Reserved.

Type 'help' for a list of available commands.
Type 'help' followed by a command name for more
information on commands.

CPLEX> Logfile 'cplex.log' closed.
Logfile 'C:\Users\llavin\Desktop\test826\logs\tmpujmjke06.cplex.log' open.
CPLEX> New value for parallel optimization mode: -1
CPLEX> New value for emphasis for MIP optimization: 1
CPLEX> New value for mixed integer optimality gap tolerance: 0.01
CPLEX> New value for integrality tolerance: 1e-12
CPLEX> New value for deterministic time limit in ticks: 75000
CPLEX> Problem 'C:\Users\llavin\Desktop\test826\logs\tmpl4lf673y.pyomo.lp' read.
Read time = 0.22 sec. (13.92 ticks)
CPLEX> Problem name         : C:\Users\llavin\Desktop\test826\logs\tmpl4lf673y.pyomo.lp
Objective sense      : Maximize
Variables            :   53809  [Nneg: 1,  Box: 22004,  Free: 4464,
                                 Binary: 27340]
Objective nonzeros   :    8978
Linear constraints   :  123253  [Less: 41346,  Greater: 59096,  Equal: 22811]
  Nonzeros           :  293287
  RHS nonzeros       :   67489

Variables            : Min LB: -5000.000        Max UB: 1000000.       
Objective nonzeros   : Min   : 0.8000000        Max   : 722.0000       
Linear constraints   :
  Nonzeros           : Min   : 0.8000000        Max   : 1000000.       
  RHS nonzeros       : Min   : 0.8000000        Max   : 1000000.       
CPLEX> CPXPARAM_Parallel                                -1
CPXPARAM_Emphasis_MIP                            1
CPXPARAM_DetTimeLimit                            75000
CPXPARAM_MIP_Tolerances_MIPGap                   0.01
CPXPARAM_MIP_Tolerances_Integrality              9.9999999999999998e-13
Tried aggregator 4 times.
MIP Presolve eliminated 88795 rows and 19051 columns.
MIP Presolve added 3393 rows and 0 columns.
MIP Presolve modified 24786 coefficients.
Aggregator did 12981 substitutions.
Reduced MIP has 24870 rows, 21221 columns, and 70952 nonzeros.
Reduced MIP has 8375 binaries, 0 generals, 0 SOSs, and 0 indicators.
Presolve time = 0.31 sec. (196.36 ticks)
Probing fixed 410 vars, tightened 5256 bounds.
Probing time = 0.08 sec. (19.54 ticks)
Tried aggregator 2 times.
MIP Presolve eliminated 929 rows and 822 columns.
MIP Presolve modified 3035 coefficients.
Aggregator did 37 substitutions.
Reduced MIP has 23904 rows, 20362 columns, and 68151 nonzeros.
Reduced MIP has 7965 binaries, 0 generals, 0 SOSs, and 0 indicators.
Presolve time = 0.11 sec. (88.87 ticks)
Probing fixed 0 vars, tightened 312 bounds.
Probing time = 0.14 sec. (23.79 ticks)
Clique table members: 43522.
MIP emphasis: integer feasibility.
MIP search method: dynamic search.
Parallel mode: opportunistic, using up to 32 threads.
Root relaxation solution time = 0.48 sec. (768.02 ticks)

        Nodes                                         Cuts/
   Node  Left     Objective  IInf  Best Integer    Best Bound    ItCnt     Gap

      0     0       27.1293   248                     27.1293     6587         
*     0+    0                           27.1293       27.1293            -0.00%
      0     0        cutoff             27.1293       27.1293     6587   -0.00%
Elapsed time = 1.69 sec. (1456.22 ticks, tree = 0.01 MB, solutions = 1)

Root node processing (before b&c):
  Real time             =    1.70 sec. (1458.16 ticks)
Parallel b&c, 32 threads:
  Real time             =    0.00 sec. (0.00 ticks)
  Sync time (average)   =    0.00 sec.
  Wait time (average)   =    0.00 sec.
                          ------------
Total (root+branch&cut) =    1.70 sec. (1458.16 ticks)

Solution pool: 1 solution saved.

MIP - Integer optimal solution:  Objective =  2.7129318465e+01
Solution time =    1.76 sec.  Iterations = 6587  Nodes = 0
Deterministic time = 1458.32 ticks  (826.24 ticks/sec)

CPLEX> Incumbent solution written to file 'C:\Users\llavin\Desktop\test826\logs\tmphrxtn__p.cplex.sol'.
CPLEX> NOTE: no warmstart specified for MIP iteration, default behavior is true
NOTE: resolving with all competitive generators using storage-only solution to warmstart
Solving...

Welcome to IBM(R) ILOG(R) CPLEX(R) Interactive Optimizer 12.9.0.0
  with Simplex, Mixed Integer & Barrier Optimizers
5725-A06 5725-A29 5724-Y48 5724-Y49 5724-Y54 5724-Y55 5655-Y21
Copyright IBM Corp. 1988, 2019.  All Rights Reserved.

Type 'help' for a list of available commands.
Type 'help' followed by a command name for more
information on commands.

CPLEX> Logfile 'cplex.log' closed.
Logfile 'C:\Users\llavin\Desktop\test826\logs\tmpwnk7cfsm.cplex.log' open.
CPLEX> New value for parallel optimization mode: -1
CPLEX> New value for emphasis for MIP optimization: 1
CPLEX> New value for mixed integer optimality gap tolerance: 0.01
CPLEX> New value for integrality tolerance: 1e-12
CPLEX> New value for deterministic time limit in ticks: 75000
CPLEX> Problem 'C:\Users\llavin\Desktop\test826\logs\tmp030jorne.pyomo.lp' read.
Read time = 0.23 sec. (13.94 ticks)
CPLEX> MIP start file 'C:\Users\llavin\Desktop\test826\logs\tmp0bd1fbh_.cplex.mst' read.
CPLEX> Problem name         : C:\Users\llavin\Desktop\test826\logs\tmp030jorne.pyomo.lp
Objective sense      : Maximize
Variables            :   54529  [Nneg: 1,  Box: 22724,  Free: 4464,
                                 Binary: 27340]
Objective nonzeros   :    9674
Linear constraints   :  123253  [Less: 41346,  Greater: 59096,  Equal: 22811]
  Nonzeros           :  293287
  RHS nonzeros       :   67489

Variables            : Min LB: -5000.000        Max UB: 1000000.       
Objective nonzeros   : Min   : 0.8000000        Max   : 722.0000       
Linear constraints   :
  Nonzeros           : Min   : 0.8000000        Max   : 1000000.       
  RHS nonzeros       : Min   : 0.8000000        Max   : 1000000.       
CPLEX> CPXPARAM_Parallel                                -1
CPXPARAM_Emphasis_MIP                            1
CPXPARAM_DetTimeLimit                            75000
CPXPARAM_MIP_Tolerances_MIPGap                   0.01
CPXPARAM_MIP_Tolerances_Integrality              9.9999999999999998e-13
Warning:  No solution found from 1 MIP starts.
Retaining values of one MIP start for possible repair.
Tried aggregator 4 times.
MIP Presolve eliminated 88795 rows and 19771 columns.
MIP Presolve added 3393 rows and 0 columns.
MIP Presolve modified 24786 coefficients.
Aggregator did 12981 substitutions.
Reduced MIP has 24870 rows, 21221 columns, and 70952 nonzeros.
Reduced MIP has 8375 binaries, 0 generals, 0 SOSs, and 0 indicators.
Presolve time = 0.33 sec. (196.78 ticks)
Probing fixed 410 vars, tightened 5256 bounds.
Probing time = 0.08 sec. (19.54 ticks)
Tried aggregator 2 times.
MIP Presolve eliminated 929 rows and 822 columns.
MIP Presolve modified 3035 coefficients.
Aggregator did 37 substitutions.
Reduced MIP has 23904 rows, 20362 columns, and 68151 nonzeros.
Reduced MIP has 7965 binaries, 0 generals, 0 SOSs, and 0 indicators.
Presolve time = 0.11 sec. (88.87 ticks)
Probing fixed 0 vars, tightened 312 bounds.
Probing time = 0.14 sec. (23.79 ticks)
Clique table members: 43522.
MIP emphasis: integer feasibility.
MIP search method: dynamic search.
Parallel mode: opportunistic, using up to 32 threads.
Root relaxation solution time = 0.48 sec. (770.42 ticks)

        Nodes                                         Cuts/
   Node  Left     Objective  IInf  Best Integer    Best Bound    ItCnt     Gap

      0     0     4947.8197   239                   4947.8197     6561         
*     0+    0                         4947.5307     4947.8197             0.01%

Root node processing (before b&c):
  Real time             =    1.86 sec. (1488.89 ticks)
Parallel b&c, 32 threads:
  Real time             =    0.00 sec. (0.00 ticks)
  Sync time (average)   =    0.00 sec.
  Wait time (average)   =    0.00 sec.
                          ------------
Total (root+branch&cut) =    1.86 sec. (1488.89 ticks)

Solution pool: 1 solution saved.

MIP - Integer optimal, tolerance (0.01/1e-06):  Objective =  4.9475307040e+03
Current MIP best bound =  4.9478196990e+03 (gap = 0.288995, 0.01%)
Solution time =    1.86 sec.  Iterations = 6561  Nodes = 0 (1)
Deterministic time = 1489.05 ticks  (800.99 ticks/sec)

CPLEX> Incumbent solution written to file 'C:\Users\llavin\Desktop\test826\logs\tmp1u0uq_qz.cplex.sol'.
CPLEX> Exporting results... 
